num_offers = 20;
num_halls = 10;
start=[33,44,13,95,28,25,95,39,41,71,15,15,57,41,38,24,67,16,15,9];
end=[97,87,66,97,59,87,99,48,77,80,19,29,99,90,65,57,95,71,93,99];
price=[2532,1389,5174,155,2094,2026,387,517,2217,873,393,386,2184,3042,2724,3169,2068,3604,5624,2136];
requirement=[475,695,218,992,478,208,726,638,532,322,341,307,526,599,224,271,701,461,532,315];
capacity=[997,604,731,913,605,998,519,300,746,594];
